c description: There is a graph of 3 vertices with a 2-clique and a 8-coloring
c generator: CNFgen (0.9.0)
c copyright: (C) 2012-2020 Massimo Lauria <massimo.lauria@uniroma1.it>
c url: https://massimolauria.net/cnfgen
c
p cnf 33 128
-4 -5 0
-4 -6 0
-5 -6 0
4 5 6 0
-7 -8 0
-7 -9 0
-8 -9 0
7 8 9 0
-4 -7 0
-5 -8 0
-6 -9 0
1 -4 -8 0
1 -7 -5 0
2 -4 -9 0
2 -7 -6 0
3 -5 -9 0
3 -8 -6 0
-10 -11 0
-10 -12 0
-10 -13 0
-10 -14 0
-10 -15 0
-10 -16 0
-10 -17 0
-11 -12 0
-11 -13 0
-11 -14 0
-11 -15 0
-11 -16 0
-11 -17 0
-12 -13 0
-12 -14 0
-12 -15 0
-12 -16 0
-12 -17 0
-13 -14 0
-13 -15 0
-13 -16 0
-13 -17 0
-14 -15 0
-14 -16 0
-14 -17 0
-15 -16 0
-15 -17 0
-16 -17 0
10 11 12 13 14 15 16 17 0
-18 -19 0
-18 -20 0
-18 -21 0
-18 -22 0
-18 -23 0
-18 -24 0
-18 -25 0
-19 -20 0
-19 -21 0
-19 -22 0
-19 -23 0
-19 -24 0
-19 -25 0
-20 -21 0
-20 -22 0
-20 -23 0
-20 -24 0
-20 -25 0
-21 -22 0
-21 -23 0
-21 -24 0
-21 -25 0
-22 -23 0
-22 -24 0
-22 -25 0
-23 -24 0
-23 -25 0
-24 -25 0
18 19 20 21 22 23 24 25 0
-26 -27 0
-26 -28 0
-26 -29 0
-26 -30 0
-26 -31 0
-26 -32 0
-26 -33 0
-27 -28 0
-27 -29 0
-27 -30 0
-27 -31 0
-27 -32 0
-27 -33 0
-28 -29 0
-28 -30 0
-28 -31 0
-28 -32 0
-28 -33 0
-29 -30 0
-29 -31 0
-29 -32 0
-29 -33 0
-30 -31 0
-30 -32 0
-30 -33 0
-31 -32 0
-31 -33 0
-32 -33 0
26 27 28 29 30 31 32 33 0
-1 -10 -18 0
-1 -11 -19 0
-1 -12 -20 0
-1 -13 -21 0
-1 -14 -22 0
-1 -15 -23 0
-1 -16 -24 0
-1 -17 -25 0
-2 -10 -26 0
-2 -11 -27 0
-2 -12 -28 0
-2 -13 -29 0
-2 -14 -30 0
-2 -15 -31 0
-2 -16 -32 0
-2 -17 -33 0
-3 -18 -26 0
-3 -19 -27 0
-3 -20 -28 0
-3 -21 -29 0
-3 -22 -30 0
-3 -23 -31 0
-3 -24 -32 0
-3 -25 -33 0